51 82 23 94 43 75 29 87 3 31 14 63 66 92 54 19 6 58 44 55 40 69 5 93 48 30 17 33 45 0 81 64 62 36 74 9 15 71 26 41 16 7 42 57 95 78 84 46 98 49 10 53 28 77 83 50 88 21 1 8 18 86 52 38 24 22 99 2 13 91 89 47 85 90 97 4 56 61 79 35 65 59 73 27 12 34 60 37 70 68 67 32 39 80 25 72 11 20 96 76 

